[VALIDATOR STDOUT]
Checking plan: /home/jfan5/Safety-gen/runs/benchmark/optic/grippers_20260205_114054/grippers/optic_results/grippers-n2-r19-o17-s17001.plan
Plan executed successfully - checking goal
Plan valid
Final value: 61 

Successful plans:
Value: 61
 /home/jfan5/Safety-gen/runs/benchmark/optic/grippers_20260205_114054/grippers/optic_results/grippers-n2-r19-o17-s17001.plan 61
